
(set-logic HORN)
(define-fun Z_1736 () Int 0)
(define-fun S_389 ((x Int)) Int (+ x 1))
(declare-fun diseqInt (Int Int) Bool)
(declare-fun unS_571 (Int Int) Bool)
(declare-fun isZ_358 (Int) Bool)
(declare-fun isS_358 (Int) Bool)
(assert (forall ((x_51642 Int))
	(unS_571 x_51642 (S_389 x_51642))))
(assert (isZ_358 Z_1736))
(assert (forall ((x_51644 Int))
	(isS_358 (S_389 x_51644))))
(assert (forall ((x_51645 Int))
	(diseqInt Z_1736 (S_389 x_51645))))
(assert (forall ((x_51646 Int))
	(diseqInt (S_389 x_51646) Z_1736)))
(assert (forall ((x_51647 Int) (x_51648 Int))
	(=> (diseqInt x_51647 x_51648) (diseqInt (S_389 x_51647) (S_389 x_51648)))))
(declare-fun add_305 (Int Int Int) Bool)
(declare-fun minus_303 (Int Int Int) Bool)
(declare-fun le_285 (Int Int) Bool)
(declare-fun ge_285 (Int Int) Bool)
(declare-fun lt_304 (Int Int) Bool)
(declare-fun gt_288 (Int Int) Bool)
(declare-fun mult_285 (Int Int Int) Bool)
(declare-fun div_285 (Int Int Int) Bool)
(declare-fun mod_287 (Int Int Int) Bool)
(assert (forall ((y_1955 Int))
	(add_305 y_1955 Z_1736 y_1955)))
(assert (forall ((x_51634 Int) (y_1955 Int) (r_354 Int))
	(=> (add_305 r_354 x_51634 y_1955) (add_305 (S_389 r_354) (S_389 x_51634) y_1955))))
(assert (forall ((y_1955 Int))
	(minus_303 Z_1736 Z_1736 y_1955)))
(assert (forall ((x_51634 Int) (y_1955 Int) (r_354 Int))
	(=> (minus_303 r_354 x_51634 y_1955) (minus_303 (S_389 r_354) (S_389 x_51634) y_1955))))
(assert (forall ((y_1955 Int))
	(le_285 Z_1736 y_1955)))
(assert (forall ((x_51634 Int) (y_1955 Int))
	(=> (le_285 x_51634 y_1955) (le_285 (S_389 x_51634) (S_389 y_1955)))))
(assert (forall ((y_1955 Int))
	(ge_285 y_1955 Z_1736)))
(assert (forall ((x_51634 Int) (y_1955 Int))
	(=> (ge_285 x_51634 y_1955) (ge_285 (S_389 x_51634) (S_389 y_1955)))))
(assert (forall ((y_1955 Int))
	(lt_304 Z_1736 (S_389 y_1955))))
(assert (forall ((x_51634 Int) (y_1955 Int))
	(=> (lt_304 x_51634 y_1955) (lt_304 (S_389 x_51634) (S_389 y_1955)))))
(assert (forall ((y_1955 Int))
	(gt_288 (S_389 y_1955) Z_1736)))
(assert (forall ((x_51634 Int) (y_1955 Int))
	(=> (gt_288 x_51634 y_1955) (gt_288 (S_389 x_51634) (S_389 y_1955)))))
(assert (forall ((y_1955 Int))
	(mult_285 Z_1736 Z_1736 y_1955)))
(assert (forall ((x_51634 Int) (y_1955 Int) (r_354 Int) (z_1737 Int))
	(=> (and (mult_285 r_354 x_51634 y_1955) (add_305 z_1737 r_354 y_1955)) (mult_285 z_1737 (S_389 x_51634) y_1955))))
(assert (forall ((x_51634 Int) (y_1955 Int))
	(=> (lt_304 x_51634 y_1955) (div_285 Z_1736 x_51634 y_1955))))
(assert (forall ((x_51634 Int) (y_1955 Int) (r_354 Int) (z_1737 Int))
	(=> (and (ge_285 x_51634 y_1955) (minus_303 z_1737 x_51634 y_1955) (div_285 r_354 z_1737 y_1955)) (div_285 (S_389 r_354) x_51634 y_1955))))
(assert (forall ((x_51634 Int) (y_1955 Int))
	(=> (lt_304 x_51634 y_1955) (mod_287 x_51634 x_51634 y_1955))))
(assert (forall ((x_51634 Int) (y_1955 Int) (r_354 Int) (z_1737 Int))
	(=> (and (ge_285 x_51634 y_1955) (minus_303 z_1737 x_51634 y_1955) (mod_287 r_354 z_1737 y_1955)) (mod_287 r_354 x_51634 y_1955))))
(declare-datatypes ((list_203 0)) (((nil_231) (cons_203 (head_406 Int) (tail_406 list_203)))))
(declare-fun diseqlist_203 (list_203 list_203) Bool)
(declare-fun head_407 (Int list_203) Bool)
(declare-fun tail_407 (list_203 list_203) Bool)
(declare-fun isnil_231 (list_203) Bool)
(declare-fun iscons_203 (list_203) Bool)
(assert (forall ((x_51650 Int) (x_51651 list_203))
	(head_407 x_51650 (cons_203 x_51650 x_51651))))
(assert (forall ((x_51650 Int) (x_51651 list_203))
	(tail_407 x_51651 (cons_203 x_51650 x_51651))))
(assert (isnil_231 nil_231))
(assert (forall ((x_51653 Int) (x_51654 list_203))
	(iscons_203 (cons_203 x_51653 x_51654))))
(assert (forall ((x_51655 Int) (x_51656 list_203))
	(diseqlist_203 nil_231 (cons_203 x_51655 x_51656))))
(assert (forall ((x_51657 Int) (x_51658 list_203))
	(diseqlist_203 (cons_203 x_51657 x_51658) nil_231)))
(assert (forall ((x_51659 Int) (x_51660 list_203) (x_51661 Int) (x_51662 list_203))
	(=> (diseqInt x_51659 x_51661) (diseqlist_203 (cons_203 x_51659 x_51660) (cons_203 x_51661 x_51662)))))
(assert (forall ((x_51659 Int) (x_51660 list_203) (x_51661 Int) (x_51662 list_203))
	(=> (diseqlist_203 x_51660 x_51662) (diseqlist_203 (cons_203 x_51659 x_51660) (cons_203 x_51661 x_51662)))))
(declare-datatypes ((pair_86 0)) (((pair_87 (projpair_172 list_203) (projpair_173 list_203)))))
(declare-fun diseqpair_43 (pair_86 pair_86) Bool)
(declare-fun projpair_174 (list_203 pair_86) Bool)
(declare-fun projpair_175 (list_203 pair_86) Bool)
(declare-fun ispair_43 (pair_86) Bool)
(assert (forall ((x_51663 list_203) (x_51664 list_203))
	(projpair_174 x_51663 (pair_87 x_51663 x_51664))))
(assert (forall ((x_51663 list_203) (x_51664 list_203))
	(projpair_175 x_51664 (pair_87 x_51663 x_51664))))
(assert (forall ((x_51666 list_203) (x_51667 list_203))
	(ispair_43 (pair_87 x_51666 x_51667))))
(assert (forall ((x_51668 list_203) (x_51669 list_203) (x_51670 list_203) (x_51671 list_203))
	(=> (diseqlist_203 x_51668 x_51670) (diseqpair_43 (pair_87 x_51668 x_51669) (pair_87 x_51670 x_51671)))))
(assert (forall ((x_51668 list_203) (x_51669 list_203) (x_51670 list_203) (x_51671 list_203))
	(=> (diseqlist_203 x_51669 x_51671) (diseqpair_43 (pair_87 x_51668 x_51669) (pair_87 x_51670 x_51671)))))
(declare-fun take_45 (list_203 Int list_203) Bool)
(assert (forall ((x_51565 Int) (y_1945 list_203))
	(=> (le_285 x_51565 Z_1736) (take_45 nil_231 x_51565 y_1945))))
(assert (forall ((x_51635 Int) (x_51583 list_203) (z_1731 Int) (xs_554 list_203) (x_51565 Int))
	(=> (and (gt_288 x_51565 Z_1736) (take_45 x_51583 x_51635 xs_554) (minus_303 x_51635 x_51565 (S_389 Z_1736))) (take_45 (cons_203 z_1731 x_51583) x_51565 (cons_203 z_1731 xs_554)))))
(assert (forall ((x_51565 Int) (y_1945 list_203))
	(=> (le_285 x_51565 Z_1736) (take_45 nil_231 x_51565 y_1945))))
(assert (forall ((x_51565 Int))
	(=> (gt_288 x_51565 Z_1736) (take_45 nil_231 x_51565 nil_231))))
(declare-fun sort_31 (list_203 Int Int) Bool)
(assert (forall ((x_51566 Int) (y_1946 Int))
	(=> (le_285 x_51566 y_1946) (sort_31 (cons_203 x_51566 (cons_203 y_1946 nil_231)) x_51566 y_1946))))
(assert (forall ((x_51566 Int) (y_1946 Int))
	(=> (gt_288 x_51566 y_1946) (sort_31 (cons_203 y_1946 (cons_203 x_51566 nil_231)) x_51566 y_1946))))
(declare-fun length_35 (Int list_203) Bool)
(assert (forall ((x_51588 Int) (x_51589 Int) (y_1947 Int) (l_37 list_203))
	(=> (and (length_35 x_51589 l_37) (add_305 x_51588 (S_389 Z_1736) x_51589)) (length_35 x_51588 (cons_203 y_1947 l_37)))))
(assert (length_35 Z_1736 nil_231))
(declare-fun drop_47 (list_203 Int list_203) Bool)
(assert (forall ((x_51591 list_203) (x_51568 Int))
	(=> (le_285 x_51568 Z_1736) (drop_47 x_51591 x_51568 x_51591))))
(assert (forall ((x_51637 Int) (x_51592 list_203) (z_1732 Int) (xs_555 list_203) (x_51568 Int))
	(=> (and (gt_288 x_51568 Z_1736) (drop_47 x_51592 x_51637 xs_555) (minus_303 x_51637 x_51568 (S_389 Z_1736))) (drop_47 x_51592 x_51568 (cons_203 z_1732 xs_555)))))
(assert (forall ((x_51594 list_203) (x_51568 Int))
	(=> (le_285 x_51568 Z_1736) (drop_47 x_51594 x_51568 x_51594))))
(assert (forall ((x_51568 Int))
	(=> (gt_288 x_51568 Z_1736) (drop_47 nil_231 x_51568 nil_231))))
(declare-fun splitAt_22 (pair_86 Int list_203) Bool)
(assert (forall ((x_51597 list_203) (x_51598 list_203) (x_51569 Int) (y_1949 list_203))
	(=> (and (take_45 x_51597 x_51569 y_1949) (drop_47 x_51598 x_51569 y_1949)) (splitAt_22 (pair_87 x_51597 x_51598) x_51569 y_1949))))
(declare-fun count_31 (Int Int list_203) Bool)
(assert (forall ((x_51599 Int) (x_51600 Int) (ys_180 list_203) (x_51570 Int))
	(=> (and (count_31 x_51600 x_51570 ys_180) (add_305 x_51599 (S_389 Z_1736) x_51600)) (count_31 x_51599 x_51570 (cons_203 x_51570 ys_180)))))
(assert (forall ((x_51601 Int) (z_1733 Int) (ys_180 list_203) (x_51570 Int))
	(=> (and (diseqInt x_51570 z_1733) (count_31 x_51601 x_51570 ys_180)) (count_31 x_51601 x_51570 (cons_203 z_1733 ys_180)))))
(assert (forall ((x_51570 Int))
	(count_31 Z_1736 x_51570 nil_231)))
(declare-fun x_51571 (list_203 list_203 list_203) Bool)
(assert (forall ((x_51605 list_203) (z_1734 Int) (xs_556 list_203) (y_1951 list_203))
	(=> (x_51571 x_51605 xs_556 y_1951) (x_51571 (cons_203 z_1734 x_51605) (cons_203 z_1734 xs_556) y_1951))))
(assert (forall ((x_51606 list_203))
	(x_51571 x_51606 nil_231 x_51606)))
(declare-fun reverse_12 (list_203 list_203) Bool)
(assert (forall ((x_51607 list_203) (x_51608 list_203) (y_1952 Int) (xs_557 list_203))
	(=> (and (reverse_12 x_51608 xs_557) (x_51571 x_51607 x_51608 (cons_203 y_1952 nil_231))) (reverse_12 x_51607 (cons_203 y_1952 xs_557)))))
(assert (reverse_12 nil_231 nil_231))
(declare-fun stoogesort_33 (list_203 list_203) Bool)
(declare-fun stoogesort_34 (list_203 list_203) Bool)
(declare-fun stoogesort_35 (list_203 list_203) Bool)
(assert (forall ((x_51639 Int) (x_51614 list_203) (x_51615 list_203) (x_51616 list_203) (x_51611 Int) (x_51612 list_203) (ys_181 list_203) (zs_62 list_203) (x_51574 list_203))
	(=> (and (stoogesort_34 x_51615 zs_62) (reverse_12 x_51616 ys_181) (x_51571 x_51614 x_51615 x_51616) (length_35 x_51611 x_51574) (reverse_12 x_51612 x_51574) (splitAt_22 (pair_87 ys_181 zs_62) x_51639 x_51612) (div_285 x_51639 x_51611 (S_389 (S_389 (S_389 Z_1736))))) (stoogesort_33 x_51614 x_51574))))
(assert (forall ((x_51618 list_203) (x_51619 list_203) (x_51620 list_203) (x_51577 Int) (x_51578 list_203) (y_1954 Int) (y_1953 Int))
	(=> (and (stoogesort_33 x_51619 (cons_203 y_1953 (cons_203 y_1954 (cons_203 x_51577 x_51578)))) (stoogesort_35 x_51620 x_51619) (stoogesort_33 x_51618 x_51620)) (stoogesort_34 x_51618 (cons_203 y_1953 (cons_203 y_1954 (cons_203 x_51577 x_51578)))))))
(assert (forall ((x_51622 list_203) (y_1954 Int) (y_1953 Int))
	(=> (sort_31 x_51622 y_1953 y_1954) (stoogesort_34 x_51622 (cons_203 y_1953 (cons_203 y_1954 nil_231))))))
(assert (forall ((y_1953 Int))
	(stoogesort_34 (cons_203 y_1953 nil_231) (cons_203 y_1953 nil_231))))
(assert (stoogesort_34 nil_231 nil_231))
(assert (forall ((x_51640 Int) (x_51628 list_203) (x_51629 list_203) (x_51626 Int) (ys_182 list_203) (zs_63 list_203) (x_51579 list_203))
	(=> (and (stoogesort_34 x_51629 zs_63) (x_51571 x_51628 ys_182 x_51629) (length_35 x_51626 x_51579) (splitAt_22 (pair_87 ys_182 zs_63) x_51640 x_51579) (div_285 x_51640 x_51626 (S_389 (S_389 (S_389 Z_1736))))) (stoogesort_35 x_51628 x_51579))))
(assert (forall ((x_51631 list_203) (x_51632 Int) (x_51633 Int) (x_51580 Int) (xs_558 list_203))
	(=> (and true (diseqInt x_51632 x_51633) (stoogesort_34 x_51631 xs_558) (count_31 x_51632 x_51580 x_51631) (count_31 x_51633 x_51580 xs_558)) false)))
(check-sat)
